146 14 197 116 59 100 118 182 75 26 129 105 136 157 127 63 29 145 47 185 112 174 54 123 58 124 68 199 83 175 137 133 2 117 0 188 98 130 170 187 160 151 149 1 78 20 139 73 165 196 171 110 61 36 23 71 81 128 80 152 6 101 189 65 88 53 163 119 9 184 143 102 60 109 69 49 132 192 67 95 64 85 52 141 131 66 11 5 135 198 31 168 50 177 113 111 154 186 153 89 39 44 77 179 42 43 155 7 48 19 104 156 32 172 74 121 173 108 15 91 159 147 28 166 181 10 161 86 35 120 21 180 94 3 148 17 106 107 140 103 115 18 99 87 37 46 169 84 82 122 30 150 162 33 93 13 4 126 76 90 194 12 16 178 51 158 138 27 92 22 195 164 38 70 24 34 114 62 144 134 55 79 96 176 25 56 167 97 125 190 72 183 142 8 41 40 193 57 45 191 

